NAME : TW_55_seed_None_id_1
TYPE : CVRPTW
DIMENSION : 21
EDGE_WEIGHT_TYPE : EUC_2D
CAPACITY : 40
SERVICE_TIME : 100
LATE_COEFF : 0
NODE_COORD_SECTION
1	558	294
2	79	203
3	242	905
4	72	335
5	282	44
6	585	922
7	490	275
8	320	833
9	456	403
10	749	183
11	319	446
12	848	265
13	37	182
14	145	414
15	858	806
16	415	122
17	7	615
18	565	953
19	285	904
20	374	54
21	737	403
DEMAND_SECTION
1	0
2	7
3	3
4	1
5	8
6	2
7	9
8	5
9	7
10	2
11	7
12	8
13	9
14	9
15	5
16	6
17	10
18	1
19	8
20	5
21	4
TIME_WINDOW_SECTION
1	0	10000
2	0	10000
3	0	10000
4	0	10000
5	0	10000
6	0	10000
7	0	10000
8	0	10000
9	0	10000
10	0	10000
11	0	10000
12	0	10000
13	0	10000
14	0	10000
15	0	10000
16	0	10000
17	0	10000
18	0	10000
19	0	10000
20	0	10000
21	0	10000
DEPOT_SECTION
1
-1
EOF
